DIMACS_lns/graph-1000-824.col
p edge 1000 1792
e 1 357
e 1 807
e 1 63
e 1 703
e 2 193
e 2 20
e 2 106
e 2 414
e 3 762
e 3 905
e 3 654
e 4 548
e 4 949
e 4 286
e 4 477
e 4 690
e 5 387
e 5 224
e 5 687
e 5 664
e 5 826
e 5 400
e 5 668
e 6 844
e 6 326
e 6 239
e 7 551
e 7 250
e 7 94
e 9 105
e 9 299
e 9 207
e 9 154
e 9 917
e 10 505
e 10 637
e 10 207
e 10 944
e 11 217
e 11 954
e 11 95
e 11 264
e 11 406
e 11 281
e 12 306
e 12 543
e 12 426
e 12 179
e 12 943
e 13 548
e 13 658
e 13 900
e 13 273
e 13 173
e 15 219
e 15 899
e 15 256
e 15 575
e 15 18
e 15 264
e 15 150
e 15 376
e 18 888
e 18 941
e 18 791
e 18 605
e 18 711
e 18 902
e 19 498
e 19 313
e 19 731
e 19 881
e 20 388
e 20 871
e 20 749
e 20 58
e 21 726
e 21 614
e 21 580
e 21 919
e 21 875
e 23 925
e 23 964
e 23 799
e 26 185
e 26 49
e 26 85
e 26 812
e 27 318
e 27 819
e 27 681
e 27 903
e 27 780
e 28 209
e 28 236
e 28 874
e 29 218
e 29 57
e 29 721
e 29 99
e 29 668
e 29 922
e 29 157
e 29 578
e 29 262
e 30 528
e 30 351
e 30 504
e 30 406
e 31 640
e 31 196
e 31 947
e 33 154
e 33 198
e 33 41
e 33 69
e 33 529
e 33 142
e 33 50
e 36 134
e 36 562
e 36 221
e 36 60
e 36 313
e 38 366
e 38 684
e 38 782
e 40 562
e 40 332
e 40 196
e 40 443
e 40 539
e 40 638
e 40 87
e 41 701
e 41 565
e 41 750
e 41 284
e 41 907
e 43 621
e 43 412
e 43 617
e 43 302
e 43 232
e 43 571
e 43 526
e 43 734
e 45 119
e 45 414
e 45 471
e 45 794
e 45 77
e 45 421
e 46 215
e 46 61
e 46 742
e 49 426
e 49 209
e 49 281
e 50 245
e 50 653
e 50 477
e 51 53
e 51 266
e 51 151
e 52 451
e 52 809
e 52 620
e 53 694
e 53 755
e 53 333
e 54 549
e 54 547
e 54 460
e 54 349
e 54 761
e 54 770
e 54 298
e 55 362
e 55 352
e 55 89
e 55 777
e 55 653
e 57 610
e 57 799
e 57 863
e 57 992
e 58 287
e 58 723
e 58 232
e 58 187
e 59 458
e 59 90
e 59 253
e 59 191
e 59 868
e 60 908
e 60 112
e 60 533
e 60 273
e 60 520
e 61 83
e 61 936
e 61 832
e 61 305
e 61 87
e 61 646
e 61 524
e 61 947
e 61 274
e 63 648
e 63 490
e 63 241
e 63 937
e 63 935
e 63 412
e 63 459
e 64 409
e 64 554
e 64 184
e 64 270
e 64 91
e 68 223
e 68 551
e 68 298
e 69 250
e 69 287
e 70 86
e 70 875
e 70 912
e 70 295
e 72 924
e 72 888
e 72 76
e 72 391
e 73 587
e 73 366
e 73 603
e 73 980
e 73 122
e 74 829
e 74 836
e 74 646
e 75 608
e 75 785
e 75 315
e 76 326
e 76 199
e 76 635
e 76 983
e 76 89
e 77 262
e 77 719
e 77 990
e 77 741
e 78 156
e 78 436
e 78 695
e 78 196
e 78 143
e 78 319
e 79 556
e 79 972
e 79 742
e 81 809
e 81 773
e 81 226
e 82 925
e 82 224
e 82 879
e 82 249
e 82 768
e 82 197
e 82 873
e 83 423
e 83 285
e 83 487
e 83 305
e 83 251
e 84 275
e 84 327
e 84 835
e 84 780
e 84 847
e 84 791
e 85 131
e 85 305
e 86 894
e 86 837
e 86 780
e 86 389
e 86 641
e 87 885
e 87 693
e 89 94
e 89 452
e 89 344
e 90 792
e 90 480
e 90 815
e 90 651
e 90 882
e 91 290
e 91 539
e 91 336
e 91 520
e 91 834
e 91 482
e 92 687
e 92 167
e 92 684
e 92 956
e 92 656
e 94 871
e 94 504
e 94 484
e 94 202
e 94 565
e 95 934
e 95 326
e 95 491
e 95 465
e 99 580
e 99 175
e 99 646
e 99 294
e 99 436
e 99 640
e 100 905
e 100 713
e 100 263
e 100 560
e 101 433
e 101 888
e 101 871
e 101 216
e 102 313
e 102 949
e 102 495
e 102 793
e 102 496
e 103 973
e 103 720
e 103 703
e 103 964
e 104 474
e 104 867
e 104 961
e 104 468
e 105 752
e 105 880
e 105 677
e 105 357
e 105 624
e 105 162
e 105 268
e 106 182
e 106 672
e 107 305
e 107 605
e 107 871
e 108 799
e 108 170
e 108 504
e 108 678
e 109 245
e 109 328
e 109 216
e 109 451
e 110 868
e 110 667
e 110 377
e 110 930
e 111 562
e 111 362
e 111 249
e 112 832
e 112 138
e 112 299
e 112 982
e 112 955
e 112 563
e 112 151
e 114 452
e 114 935
e 114 644
e 115 890
e 115 328
e 115 463
e 115 415
e 115 336
e 118 163
e 118 673
e 118 712
e 118 791
e 118 299
e 119 702
e 119 588
e 119 612
e 119 564
e 120 530
e 120 557
e 120 919
e 120 792
e 120 423
e 121 340
e 121 875
e 121 779
e 121 228
e 122 523
e 122 273
e 123 800
e 123 243
e 123 505
e 123 698
e 124 160
e 124 136
e 124 991
e 124 651
e 124 542
e 124 947
e 124 332
e 124 922
e 125 993
e 125 918
e 125 481
e 125 997
e 125 432
e 126 837
e 126 265
e 126 869
e 127 655
e 127 808
e 127 879
e 127 637
e 127 526
e 127 466
e 128 651
e 128 907
e 128 238
e 128 850
e 129 429
e 129 322
e 129 603
e 129 256
e 129 229
e 129 583
e 131 998
e 131 223
e 131 880
e 131 409
e 131 788
e 132 586
e 132 178
e 132 858
e 132 574
e 132 262
e 132 171
e 132 912
e 133 673
e 133 267
e 133 349
e 133 496
e 133 591
e 133 193
e 133 727
e 134 546
e 134 394
e 136 406
e 136 549
e 136 197
e 136 943
e 136 322
e 136 160
e 136 814
e 136 306
e 138 953
e 138 928
e 138 912
e 139 468
e 139 353
e 139 349
e 139 943
e 140 210
e 140 920
e 140 858
e 140 489
e 140 152
e 140 812
e 140 537
e 140 841
e 141 938
e 141 996
e 141 987
e 142 344
e 142 591
e 142 640
e 143 320
e 143 973
e 143 166
e 143 844
e 144 352
e 144 980
e 144 976
e 144 471
e 144 302
e 145 475
e 145 920
e 145 982
e 146 610
e 146 188
e 146 259
e 146 301
e 146 868
e 146 325
e 149 215
e 149 249
e 149 544
e 150 372
e 150 407
e 150 667
e 150 279
e 151 962
e 151 570
e 151 268
e 151 357
e 151 837
e 151 795
e 152 904
e 152 756
e 152 874
e 152 178
e 153 285
e 153 475
e 153 195
e 153 997
e 154 948
e 154 586
e 155 309
e 155 926
e 155 890
e 155 414
e 156 265
e 156 763
e 156 640
e 156 507
e 157 808
e 157 312
e 157 606
e 158 967
e 158 534
e 158 966
e 158 384
e 158 840
e 158 275
e 160 632
e 161 267
e 161 544
e 161 505
e 162 615
e 162 319
e 162 859
e 162 248
e 163 892
e 163 947
e 163 183
e 164 709
e 164 337
e 164 990
e 165 945
e 165 723
e 165 962
e 165 387
e 165 576
e 165 911
e 165 615
e 166 944
e 166 471
e 166 207
e 166 388
e 166 559
e 167 964
e 167 614
e 167 600
e 167 310
e 169 632
e 169 633
e 169 185
e 169 597
e 170 834
e 170 381
e 170 759
e 170 540
e 170 701
e 170 371
e 170 529
e 171 915
e 171 411
e 171 593
e 171 664
e 171 415
e 172 655
e 172 855
e 172 394
e 172 937
e 173 251
e 173 635
e 173 266
e 173 965
e 174 574
e 174 187
e 174 409
e 174 325
e 174 383
e 174 556
e 175 552
e 175 598
e 175 580
e 175 320
e 175 850
e 175 670
e 175 998
e 175 292
e 177 967
e 177 857
e 177 639
e 177 349
e 178 281
e 178 841
e 179 678
e 179 290
e 179 258
e 179 319
e 179 429
e 179 238
e 180 353
e 180 1000
e 180 185
e 180 815
e 180 273
e 180 286
e 182 486
e 182 620
e 182 675
e 183 628
e 183 381
e 183 574
e 184 573
e 184 409
e 184 955
e 184 193
e 185 755
e 185 193
e 185 600
e 187 624
e 188 360
e 188 234
e 188 347
e 189 990
e 189 878
e 189 743
e 189 533
e 189 978
e 191 201
e 191 457
e 191 608
e 191 919
e 191 783
e 191 199
e 192 710
e 192 692
e 192 420
e 192 687
e 192 829
e 193 377
e 193 521
e 193 701
e 195 249
e 195 755
e 196 779
e 196 936
e 197 872
e 197 883
e 197 924
e 197 584
e 197 347
e 198 215
e 198 826
e 198 904
e 199 326
e 200 693
e 200 470
e 200 764
e 200 610
e 200 532
e 201 950
e 201 511
e 201 788
e 201 495
e 202 992
e 202 465
e 203 948
e 203 463
e 203 853
e 203 468
e 203 737
e 203 654
e 203 576
e 203 218
e 204 601
e 204 667
e 204 656
e 207 220
e 207 799
e 207 928
e 208 547
e 208 412
e 208 231
e 208 218
e 208 621
e 208 599
e 209 932
e 210 993
e 210 527
e 210 918
e 210 972
e 210 709
e 210 268
e 210 302
e 210 626
e 211 742
e 211 693
e 211 290
e 212 743
e 212 941
e 212 466
e 213 890
e 213 850
e 213 287
e 213 752
e 213 983
e 213 689
e 213 601
e 215 576
e 215 656
e 215 908
e 216 956
e 217 639
e 217 877
e 217 767
e 218 837
e 218 954
e 218 495
e 218 451
e 218 564
e 218 920
e 219 293
e 219 298
e 219 237
e 220 391
e 220 654
e 220 415
e 220 720
e 220 547
e 221 320
e 221 510
e 223 299
e 223 992
e 223 327
e 223 492
e 223 875
e 224 603
e 224 690
e 226 935
e 226 687
e 226 680
e 226 943
e 228 561
e 228 236
e 229 414
e 229 847
e 229 990
e 231 473
e 231 501
e 232 874
e 232 464
e 232 931
e 232 742
e 233 719
e 233 667
e 233 565
e 233 690
e 233 265
e 234 282
e 234 549
e 234 266
e 234 764
e 235 454
e 235 462
e 235 301
e 235 885
e 236 485
e 236 270
e 236 585
e 237 934
e 237 929
e 237 618
e 237 719
e 238 309
e 238 334
e 238 497
e 239 298
e 239 652
e 239 738
e 240 529
e 240 262
e 240 899
e 241 556
e 241 546
e 242 917
e 242 482
e 242 403
e 243 923
e 243 945
e 245 294
e 245 846
e 246 970
e 246 326
e 246 583
e 248 474
e 248 834
e 248 300
e 248 460
e 249 363
e 249 460
e 249 987
e 250 344
e 250 305
e 251 680
e 251 421
e 252 593
e 252 570
e 252 511
e 253 841
e 253 991
e 253 712
e 253 345
e 253 899
e 254 260
e 254 501
e 254 912
e 254 796
e 256 433
e 256 547
e 257 383
e 257 572
e 257 995
e 257 955
e 257 932
e 257 815
e 258 288
e 258 412
e 258 702
e 259 485
e 259 966
e 259 928
e 260 710
e 260 998
e 260 766
e 260 914
e 260 320
e 262 517
e 262 305
e 263 797
e 263 547
e 264 557
e 264 367
e 264 799
e 264 322
e 264 862
e 265 585
e 265 575
e 265 670
e 266 541
e 266 557
e 266 391
e 266 660
e 267 282
e 267 657
e 268 857
e 268 465
e 268 466
e 270 639
e 270 788
e 270 779
e 270 869
e 272 361
e 272 328
e 272 885
e 272 703
e 272 844
e 272 534
e 272 770
e 272 501
e 272 530
e 273 667
e 273 692
e 274 541
e 274 944
e 274 585
e 274 846
e 275 408
e 278 941
e 278 946
e 278 903
e 278 532
e 279 504
e 279 425
e 281 661
e 281 478
e 281 560
e 281 958
e 282 364
e 282 746
e 284 949
e 284 879
e 285 573
e 285 451
e 285 996
e 286 413
e 286 575
e 286 955
e 286 298
e 287 422
e 287 493
e 287 460
e 287 858
e 287 353
e 287 758
e 288 872
e 288 588
e 288 727
e 288 849
e 289 785
e 289 647
e 289 880
e 289 910
e 290 935
e 290 796
e 290 847
e 290 406
e 292 788
e 292 857
e 292 869
e 292 337
e 293 712
e 293 976
e 293 962
e 293 648
e 294 905
e 295 564
e 295 742
e 295 528
e 298 996
e 298 791
e 299 717
e 299 743
e 299 966
e 300 707
e 300 564
e 300 510
e 300 492
e 300 360
e 300 702
e 301 701
e 301 839
e 301 946
e 302 646
e 302 950
e 302 965
e 302 384
e 305 930
e 305 578
e 305 813
e 305 603
e 306 551
e 306 879
e 306 979
e 306 755
e 308 863
e 308 451
e 308 857
e 309 314
e 309 937
e 309 612
e 309 729
e 309 974
e 310 898
e 310 850
e 310 902
e 312 507
e 312 751
e 312 573
e 312 591
e 312 529
e 313 639
e 313 909
e 314 403
e 314 587
e 314 557
e 315 329
e 315 648
e 315 363
e 315 883
e 315 990
e 315 936
e 315 888
e 318 684
e 318 874
e 319 460
e 319 612
e 319 402
e 319 338
e 320 651
e 320 333
e 320 816
e 321 425
e 321 367
e 321 794
e 321 444
e 325 482
e 325 949
e 325 519
e 325 430
e 325 716
e 326 793
e 326 690
e 326 931
e 326 737
e 327 489
e 327 720
e 328 653
e 328 919
e 329 561
e 329 457
e 332 819
e 332 594
e 332 950
e 333 835
e 333 859
e 333 673
e 333 485
e 334 813
e 334 482
e 334 641
e 335 669
e 335 752
e 335 806
e 335 900
e 335 538
e 336 812
e 336 611
e 336 957
e 336 748
e 337 558
e 337 400
e 337 450
e 337 648
e 337 392
e 337 533
e 337 617
e 337 794
e 338 700
e 338 826
e 338 468
e 338 529
e 338 703
e 338 570
e 338 518
e 340 901
e 340 625
e 344 953
e 344 786
e 345 763
e 345 868
e 347 579
e 349 857
e 349 432
e 351 386
e 351 430
e 351 721
e 351 996
e 351 464
e 351 938
e 352 501
e 352 749
e 352 952
e 353 522
e 353 768
e 353 870
e 354 788
e 354 462
e 354 911
e 356 495
e 356 636
e 356 612
e 357 660
e 357 532
e 357 980
e 357 968
e 360 961
e 360 746
e 360 877
e 361 808
e 361 970
e 362 699
e 362 558
e 362 512
e 362 998
e 362 567
e 363 584
e 363 664
e 363 931
e 364 928
e 364 457
e 366 748
e 367 762
e 367 578
e 367 774
e 371 519
e 371 677
e 371 590
e 371 541
e 371 739
e 372 680
e 372 599
e 372 531
e 376 447
e 376 949
e 376 644
e 376 698
e 377 895
e 381 570
e 381 513
e 383 829
e 384 668
e 384 454
e 384 684
e 386 997
e 386 753
e 386 847
e 386 813
e 386 416
e 387 417
e 387 931
e 387 695
e 388 408
e 388 521
e 388 565
e 388 515
e 389 953
e 389 451
e 389 955
e 391 694
e 391 794
e 391 900
e 392 804
e 392 698
e 394 578
e 397 896
e 397 930
e 397 558
e 398 523
e 398 742
e 398 649
e 398 535
e 398 651
e 398 515
e 399 900
e 399 586
e 399 411
e 399 678
e 399 945
e 400 635
e 400 725
e 400 575
e 400 658
e 400 800
e 400 712
e 400 450
e 402 515
e 402 547
e 403 672
e 403 624
e 406 923
e 406 862
e 406 974
e 406 460
e 406 447
e 406 628
e 407 978
e 407 886
e 408 556
e 411 855
e 411 681
e 411 641
e 411 444
e 412 798
e 412 752
e 412 541
e 412 925
e 413 766
e 413 494
e 414 751
e 415 675
e 415 928
e 416 905
e 416 956
e 416 657
e 416 531
e 417 612
e 417 868
e 417 493
e 418 652
e 418 459
e 418 780
e 418 785
e 418 694
e 418 571
e 420 640
e 420 992
e 420 611
e 420 557
e 421 626
e 421 533
e 422 453
e 422 896
e 423 752
e 425 914
e 425 791
e 426 841
e 426 559
e 429 485
e 430 494
e 430 791
e 430 646
e 430 814
e 432 719
e 432 459
e 433 883
e 433 925
e 433 837
e 433 777
e 433 726
e 435 641
e 435 531
e 435 556
e 435 976
e 436 807
e 436 459
e 443 494
e 443 520
e 444 755
e 444 486
e 444 901
e 445 675
e 445 552
e 445 896
e 445 846
e 445 773
e 447 504
e 450 458
e 450 804
e 451 455
e 452 725
e 452 567
e 453 862
e 453 558
e 454 782
e 454 838
e 454 543
e 455 487
e 455 763
e 457 924
e 457 530
e 457 962
e 457 695
e 458 507
e 458 910
e 458 633
e 460 882
e 460 524
e 460 851
e 460 813
e 462 731
e 462 837
e 462 746
e 462 749
e 463 532
e 463 537
e 464 915
e 464 974
e 465 610
e 465 938
e 465 628
e 465 769
e 465 538
e 466 579
e 466 505
e 467 497
e 467 811
e 467 672
e 467 938
e 468 937
e 470 590
e 470 699
e 471 907
e 473 513
e 473 590
e 474 868
e 474 670
e 475 491
e 477 622
e 477 617
e 477 898
e 478 752
e 478 601
e 479 533
e 479 527
e 479 707
e 479 996
e 480 807
e 480 880
e 480 501
e 481 890
e 481 626
e 484 713
e 484 608
e 484 521
e 485 865
e 485 588
e 485 968
e 486 737
e 486 517
e 487 926
e 487 783
e 489 914
e 489 599
e 489 797
e 489 561
e 489 916
e 490 558
e 490 750
e 490 851
e 491 551
e 491 651
e 492 638
e 492 905
e 493 677
e 494 590
e 495 849
e 496 881
e 496 622
e 497 648
e 497 909
e 497 831
e 498 885
e 498 881
e 501 813
e 501 677
e 502 773
e 502 534
e 502 524
e 502 709
e 504 748
e 504 707
e 505 935
e 510 511
e 510 806
e 511 879
e 511 798
e 511 837
e 511 945
e 511 590
e 512 734
e 512 522
e 512 720
e 512 996
e 513 754
e 513 692
e 513 958
e 513 838
e 515 752
e 515 777
e 516 539
e 516 870
e 516 621
e 517 910
e 518 608
e 518 908
e 519 836
e 519 1000
e 519 711
e 519 729
e 519 726
e 520 699
e 520 759
e 521 794
e 521 628
e 521 892
e 522 880
e 523 839
e 524 669
e 526 909
e 526 721
e 527 691
e 527 795
e 527 730
e 527 709
e 527 968
e 528 620
e 528 628
e 529 970
e 529 903
e 530 756
e 530 962
e 530 780
e 530 894
e 530 573
e 531 548
e 531 565
e 532 950
e 533 846
e 533 808
e 533 962
e 534 942
e 534 988
e 534 777
e 534 914
e 535 831
e 535 862
e 537 731
e 537 593
e 537 912
e 538 723
e 539 652
e 540 967
e 540 956
e 540 826
e 540 835
e 541 918
e 541 593
e 542 672
e 542 698
e 542 727
e 542 581
e 543 964
e 543 902
e 543 703
e 543 711
e 544 765
e 544 632
e 544 870
e 545 584
e 545 915
e 545 705
e 546 693
e 548 719
e 549 953
e 549 685
e 552 794
e 554 621
e 554 969
e 554 756
e 556 896
e 557 969
e 557 649
e 558 741
e 559 873
e 560 899
e 562 983
e 562 765
e 562 928
e 563 838
e 563 942
e 564 665
e 564 738
e 565 826
e 567 956
e 570 980
e 571 825
e 572 764
e 572 723
e 573 621
e 573 948
e 574 995
e 574 618
e 575 634
e 576 636
e 578 762
e 578 881
e 578 751
e 578 717
e 579 736
e 580 926
e 581 698
e 581 905
e 583 664
e 584 699
e 584 901
e 586 730
e 586 988
e 586 825
e 587 753
e 587 800
e 588 690
e 590 713
e 593 825
e 594 883
e 594 742
e 596 653
e 596 729
e 596 865
e 597 797
e 597 726
e 598 743
e 598 600
e 598 661
e 598 694
e 599 717
e 600 895
e 600 896
e 600 619
e 601 979
e 601 768
e 603 712
e 603 777
e 603 875
e 605 908
e 605 655
e 605 711
e 606 865
e 606 853
e 606 911
e 606 716
e 608 909
e 610 758
e 610 929
e 611 932
e 611 709
e 612 719
e 614 890
e 614 754
e 615 751
e 618 754
e 618 741
e 619 694
e 619 962
e 621 773
e 621 881
e 621 751
e 621 635
e 622 770
e 624 765
e 625 916
e 625 798
e 625 797
e 626 938
e 626 888
e 628 899
e 632 660
e 633 952
e 634 901
e 634 774
e 635 982
e 636 800
e 637 846
e 637 725
e 637 754
e 637 966
e 638 797
e 638 700
e 638 791
e 638 711
e 639 698
e 639 936
e 639 928
e 639 995
e 640 935
e 644 694
e 644 692
e 646 969
e 647 690
e 647 767
e 647 761
e 648 804
e 648 721
e 649 836
e 651 840
e 652 920
e 655 664
e 656 896
e 656 873
e 657 991
e 657 709
e 658 742
e 661 698
e 664 958
e 664 766
e 664 672
e 665 739
e 665 670
e 667 760
e 667 931
e 668 902
e 668 719
e 668 746
e 669 982
e 672 677
e 672 964
e 672 956
e 680 930
e 681 691
e 681 721
e 684 875
e 684 923
e 685 783
e 685 812
e 687 956
e 689 750
e 689 925
e 690 760
e 690 898
e 691 881
e 692 726
e 694 920
e 695 759
e 698 970
e 699 950
e 700 886
e 700 839
e 700 997
e 703 736
e 704 836
e 704 988
e 704 815
e 705 896
e 705 917
e 707 838
e 707 730
e 707 929
e 709 769
e 710 807
e 711 753
e 711 983
e 711 743
e 712 968
e 713 934
e 713 950
e 716 914
e 719 961
e 721 738
e 721 773
e 723 779
e 726 944
e 726 998
e 727 767
e 727 928
e 729 829
e 730 944
e 730 734
e 731 764
e 736 909
e 736 786
e 738 934
e 738 773
e 738 988
e 739 874
e 741 904
e 741 825
e 741 895
e 743 968
e 743 760
e 746 799
e 749 868
e 749 954
e 749 769
e 749 774
e 751 846
e 753 931
e 755 853
e 756 796
e 756 964
e 756 857
e 756 907
e 758 938
e 758 797
e 759 857
e 759 844
e 760 923
e 760 924
e 760 786
e 761 942
e 763 816
e 764 768
e 764 882
e 764 944
e 765 900
e 767 825
e 768 983
e 770 783
e 773 931
e 774 850
e 777 987
e 779 888
e 782 998
e 785 878
e 792 973
e 793 970
e 793 991
e 794 832
e 794 967
e 795 978
e 795 867
e 799 919
e 799 934
e 799 875
e 800 883
e 800 950
e 804 956
e 804 991
e 806 956
e 806 856
e 807 849
e 808 932
e 808 966
e 809 886
e 809 934
e 811 819
e 811 948
e 814 910
e 815 856
e 816 924
e 816 936
e 816 877
e 819 998
e 826 949
e 831 954
e 831 949
e 832 978
e 834 943
e 836 972
e 838 905
e 839 898
e 840 957
e 847 946
e 850 937
e 850 935
e 851 900
e 855 935
e 855 863
e 856 918
e 856 914
e 859 917
e 863 974
e 865 1000
e 867 979
e 871 982
e 872 892
e 874 980
e 877 993
e 878 916
e 886 946
e 888 991
e 890 914
e 894 918
e 895 983
e 896 941
e 896 916
e 896 949
e 900 912
e 902 923
e 903 1000
e 909 943
e 916 934
e 920 953
e 922 1000
e 926 928
e 928 929
e 931 938
e 952 998
e 957 965
